(declare-const term_to_project_onto5 Real)
(declare-const term_to_project_onto7 Real)
(declare-const term_to_project_onto2 Real)
(declare-const term_to_project_onto9 Real)
(declare-const term_to_project_onto1 Real)
(declare-const tmp___0 Int)
(declare-const term_to_project_onto Real)
(declare-const term_to_project_onto0 Real)
(declare-const term_to_project_onto8 Real)
(declare-const term_to_project_onto6 Real)
(declare-const term_to_project_onto3 Real)
(declare-const term_to_project_onto4 Real)
(assert (exists
         ((uninterp?1 Int) (uninterp?2 Int) (uninterp?3 Int) (uninterp?4 Int)
            (uninterp?5 Int) (uninterp?6 Int) (uninterp?7 Int)
            (uninterp?8 Int) (uninterp?9 Int) (uninterp?10 Int)
            (|tmp___0'?11| Int) (|s'?12| Int) (|r'?13| Int) (|q'?14| Int)
            (|p'?15| Int) (|b'?16| Int) (|a'?17| Int) (|counter'?18| Int)
            (|c'?19| Int) (|k'?20| Int) (|tmp'?21| Int) (K?22 Int)
            (|tmp'?23| Int) (|k'?24| Int) (|c'?25| Int) (|counter'?26| Int)
            (q?27 Int) (s?28 Int) (r?29 Int) (p?30 Int) (k?31 Int) (c?32 Int)
            (tmp?33 Int) (a?34 Int) (b?35 Int) (counter?36 Int) (y?37 Int)
            (x?38 Int))
         (and (= k?31 0) (<= (- c?32) 0) (<= (+ (- a?34) 1) 0)
                (<= (+ (- b?35) 1) 0) (<= (- counter?36) 0)
                (<= (+ (- y?37) 1) 0) (<= (+ (- x?38) 1) 0) (= k?31 0)
                (<= counter?36 0)
                (or (<= (+ b?35 1) 0) (<= (+ (- b?35) 1) 0)) (<= K?22 0)
                (= K?22 0) (= (+ (- |tmp'?21|) tmp?33) 0) (= (- |k'?20|) 0)
                (= (+ (- |c'?19|) a?34) 0)
                (= (+ (- |counter'?18|) counter?36 1) 0) (<= (- K?22) 0)
                (= |k'?20| 0) (<= (+ (- |c'?19|) 1) 0) (<= (+ (- a?34) 1) 0)
                (<= (+ (- b?35) 1) 0) (<= (+ (- |counter'?18|) 1) 0)
                (<= (+ (- y?37) 1) 0) (<= (+ (- x?38) 1) 0) (= |k'?20| 0)
                (or (and (<= |counter'?18| 0)
                           (= (+ (- |c'?19|) (- uninterp?10) a?34) 0)
                           (= (+ (- uninterp?9) (- uninterp?8) a?34) 0)
                           (= (+ (- uninterp?7) (- uninterp?6) b?35) 0)
                           (= (+ uninterp?5 uninterp?4 (- uninterp?7)
                                   (- uninterp?6) (- uninterp?3) b?35) 0)
                           (<= (+ |c'?19| (- b?35) 1) 0))
                      (<= (+ (- |counter'?18|) 1) 0))
                (= (+ |tmp___0'?11| (- counter?36)) 0)
                (= (+ |tmp'?23| (- |counter'?18|)) 0)
                (= (+ |k'?24| (- |k'?20|)) 0) (= (+ |c'?25| (- |c'?19|)) 0)
                (= (+ |s'?12| (- r?29) uninterp?2) 0)
                (= (+ |r'?13| (- s?28)) 0)
                (= (+ |q'?14| (- p?30) uninterp?1) 0)
                (= (+ |p'?15| (- q?27)) 0) (= (+ |b'?16| (- |c'?19|)) 0)
                (= (+ |a'?17| (- b?35)) 0)
                (= (+ |counter'?26| (- |counter'?18|) -1) 0)
                (<= 0 uninterp?1) (<= uninterp?1 0) (<= 0 uninterp?2)
                (<= uninterp?2 0) (<= 1 uninterp?3) (<= b?35 uninterp?3)
                (<= y?37 uninterp?3) (<= s?28 uninterp?6)
                (<= q?27 uninterp?7) (<= r?29 uninterp?8)
                (<= p?30 uninterp?9) (<= 0 uninterp?10)
                (<= |k'?20| uninterp?10) (<= uninterp?10 0)
                (= term_to_project_onto9 (+ |counter'?26| (- counter?36)))
                (= term_to_project_onto8 (+ |a'?17| (- a?34)))
                (= term_to_project_onto7 (+ |b'?16| (- b?35)))
                (= term_to_project_onto6 (+ |p'?15| (- p?30)))
                (= term_to_project_onto5 (+ |q'?14| (- q?27)))
                (= term_to_project_onto4 (+ |r'?13| (- r?29)))
                (= term_to_project_onto3 (+ |s'?12| (- s?28)))
                (= term_to_project_onto2 (+ |c'?25| (- c?32)))
                (= term_to_project_onto1 (+ |k'?24| (- k?31)))
                (= term_to_project_onto0 (+ |tmp'?23| (- tmp?33)))
                (= term_to_project_onto (+ |tmp___0'?11| (- tmp___0))))))
(check-sat)
